c File: data_files/evolved_graphs/g3626.col
c
c Auto generated graph
c
p edge 100 1482
e 1 7
e 1 9
e 1 10
e 1 15
e 1 28
e 1 41
e 1 64
e 2 3
e 2 5
e 2 6
e 2 7
e 2 8
e 2 12
e 2 16
e 2 19
e 2 100
e 3 5
e 3 10
e 3 12
e 3 16
e 3 45
e 3 53
e 3 77
e 4 6
e 4 8
e 4 9
e 4 12
e 4 13
e 4 17
e 4 18
e 4 24
e 4 67
e 4 87
e 5 11
e 5 12
e 5 16
e 5 22
e 5 52
e 5 70
e 5 90
e 6 8
e 6 10
e 6 12
e 6 46
e 6 47
e 6 62
e 6 73
e 6 92
e 7 8
e 7 13
e 7 18
e 7 19
e 7 59
e 7 69
e 8 15
e 8 18
e 8 19
e 8 80
e 8 99
e 9 18
e 9 38
e 9 69
e 9 100
e 10 12
e 10 14
e 10 15
e 10 17
e 10 23
e 10 32
e 10 56
e 10 85
e 11 13
e 11 15
e 11 17
e 11 83
e 12 14
e 12 15
e 12 19
e 12 65
e 12 68
e 12 87
e 12 93
e 13 18
e 13 19
e 13 34
e 14 15
e 14 18
e 14 23
e 14 36
e 14 37
e 14 38
e 14 39
e 14 44
e 14 47
e 14 51
e 14 64
e 14 67
e 14 70
e 14 88
e 14 94
e 15 16
e 15 19
e 15 20
e 15 21
e 15 22
e 15 24
e 15 26
e 15 40
e 15 44
e 15 46
e 15 52
e 15 69
e 15 70
e 15 74
e 15 85
e 15 86
e 15 89
e 15 90
e 15 92
e 15 96
e 15 99
e 16 18
e 16 19
e 16 31
e 16 36
e 16 38
e 16 46
e 16 56
e 16 57
e 16 61
e 16 65
e 16 67
e 16 76
e 16 96
e 17 34
e 17 46
e 17 47
e 17 51
e 17 54
e 17 56
e 17 74
e 17 76
e 17 83
e 17 85
e 17 89
e 18 19
e 18 23
e 18 27
e 18 31
e 18 35
e 18 38
e 18 39
e 18 44
e 18 45
e 18 49
e 18 55
e 18 64
e 18 66
e 18 71
e 18 73
e 18 76
e 18 85
e 18 88
e 18 97
e 19 20
e 19 37
e 19 39
e 19 42
e 19 51
e 19 59
e 19 61
e 19 67
e 19 68
e 19 72
e 19 76
e 19 80
e 19 89
e 19 95
e 19 96
e 20 21
e 20 27
e 20 30
e 20 32
e 20 33
e 20 35
e 20 38
e 20 39
e 20 42
e 20 44
e 20 46
e 20 48
e 20 50
e 20 52
e 20 53
e 20 54
e 20 55
e 20 56
e 20 58
e 20 60
e 20 63
e 20 64
e 20 65
e 20 66
e 20 67
e 20 71
e 20 73
e 20 75
e 20 76
e 20 78
e 20 79
e 20 80
e 20 83
e 20 85
e 20 87
e 20 88
e 20 89
e 20 99
e 20 100
e 21 25
e 21 26
e 21 34
e 21 37
e 21 38
e 21 39
e 21 40
e 21 44
e 21 49
e 21 51
e 21 52
e 21 53
e 21 55
e 21 58
e 21 59
e 21 60
e 21 61
e 21 64
e 21 65
e 21 68
e 21 74
e 21 75
e 21 76
e 21 77
e 21 82
e 21 83
e 21 85
e 21 89
e 21 94
e 21 97
e 21 99
e 22 27
e 22 28
e 22 30
e 22 33
e 22 34
e 22 39
e 22 42
e 22 43
e 22 44
e 22 45
e 22 48
e 22 51
e 22 52
e 22 55
e 22 58
e 22 59
e 22 66
e 22 67
e 22 72
e 22 73
e 22 76
e 22 78
e 22 79
e 22 80
e 22 81
e 22 82
e 22 83
e 22 85
e 22 86
e 22 87
e 22 88
e 22 89
e 22 90
e 22 93
e 22 95
e 22 96
e 22 99
e 23 37
e 23 38
e 23 41
e 23 42
e 23 43
e 23 47
e 23 49
e 23 51
e 23 52
e 23 57
e 23 59
e 23 60
e 23 63
e 23 65
e 23 66
e 23 69
e 23 73
e 23 76
e 23 77
e 23 79
e 23 80
e 23 81
e 23 82
e 23 83
e 23 86
e 23 88
e 23 90
e 23 92
e 23 93
e 23 95
e 23 97
e 24 25
e 24 26
e 24 27
e 24 31
e 24 35
e 24 43
e 24 46
e 24 48
e 24 51
e 24 52
e 24 54
e 24 55
e 24 58
e 24 59
e 24 60
e 24 61
e 24 64
e 24 65
e 24 66
e 24 71
e 24 72
e 24 73
e 24 74
e 24 75
e 24 77
e 24 79
e 24 81
e 24 82
e 24 84
e 24 85
e 24 86
e 24 87
e 24 88
e 24 90
e 24 91
e 24 92
e 24 94
e 24 96
e 24 99
e 24 100
e 25 27
e 25 28
e 25 30
e 25 31
e 25 32
e 25 33
e 25 38
e 25 40
e 25 41
e 25 43
e 25 44
e 25 45
e 25 47
e 25 48
e 25 49
e 25 50
e 25 51
e 25 52
e 25 54
e 25 55
e 25 58
e 25 59
e 25 60
e 25 61
e 25 62
e 25 66
e 25 68
e 25 69
e 25 70
e 25 71
e 25 74
e 25 75
e 25 76
e 25 81
e 25 82
e 25 83
e 25 84
e 25 85
e 25 87
e 25 89
e 25 92
e 25 93
e 25 94
e 25 96
e 25 100
e 26 31
e 26 32
e 26 36
e 26 37
e 26 38
e 26 39
e 26 41
e 26 42
e 26 43
e 26 47
e 26 50
e 26 51
e 26 52
e 26 54
e 26 56
e 26 60
e 26 62
e 26 63
e 26 64
e 26 67
e 26 68
e 26 69
e 26 75
e 26 77
e 26 78
e 26 79
e 26 80
e 26 82
e 26 84
e 26 85
e 26 87
e 26 89
e 26 90
e 26 92
e 26 94
e 26 100
e 27 30
e 27 33
e 27 37
e 27 38
e 27 39
e 27 41
e 27 42
e 27 44
e 27 45
e 27 48
e 27 52
e 27 53
e 27 54
e 27 55
e 27 56
e 27 61
e 27 63
e 27 66
e 27 67
e 27 68
e 27 69
e 27 71
e 27 72
e 27 75
e 27 77
e 27 80
e 27 81
e 27 82
e 27 85
e 27 89
e 27 90
e 27 92
e 27 93
e 27 95
e 27 100
e 28 30
e 28 31
e 28 38
e 28 41
e 28 42
e 28 43
e 28 44
e 28 47
e 28 48
e 28 49
e 28 50
e 28 54
e 28 55
e 28 59
e 28 61
e 28 62
e 28 63
e 28 65
e 28 67
e 28 68
e 28 69
e 28 70
e 28 71
e 28 72
e 28 75
e 28 77
e 28 78
e 28 80
e 28 83
e 28 87
e 28 88
e 28 89
e 28 96
e 28 98
e 29 33
e 29 35
e 29 39
e 29 41
e 29 42
e 29 44
e 29 46
e 29 47
e 29 49
e 29 50
e 29 52
e 29 53
e 29 56
e 29 57
e 29 59
e 29 60
e 29 61
e 29 63
e 29 66
e 29 72
e 29 73
e 29 77
e 29 82
e 29 84
e 29 86
e 29 88
e 29 90
e 29 94
e 29 97
e 29 99
e 29 100
e 30 34
e 30 36
e 30 39
e 30 40
e 30 44
e 30 45
e 30 48
e 30 50
e 30 51
e 30 53
e 30 55
e 30 56
e 30 57
e 30 59
e 30 61
e 30 62
e 30 63
e 30 64
e 30 65
e 30 66
e 30 70
e 30 71
e 30 72
e 30 75
e 30 76
e 30 78
e 30 79
e 30 80
e 30 83
e 30 84
e 30 89
e 30 90
e 30 91
e 30 95
e 30 96
e 30 98
e 30 99
e 31 33
e 31 34
e 31 36
e 31 38
e 31 42
e 31 44
e 31 45
e 31 46
e 31 49
e 31 51
e 31 53
e 31 56
e 31 57
e 31 61
e 31 62
e 31 64
e 31 65
e 31 66
e 31 67
e 31 68
e 31 69
e 31 72
e 31 73
e 31 74
e 31 76
e 31 77
e 31 78
e 31 79
e 31 80
e 31 81
e 31 83
e 31 85
e 31 86
e 31 88
e 31 92
e 31 93
e 31 94
e 31 95
e 31 100
e 32 34
e 32 36
e 32 39
e 32 40
e 32 43
e 32 44
e 32 45
e 32 49
e 32 50
e 32 52
e 32 54
e 32 57
e 32 60
e 32 62
e 32 63
e 32 65
e 32 67
e 32 68
e 32 69
e 32 72
e 32 73
e 32 76
e 32 78
e 32 82
e 32 83
e 32 85
e 32 87
e 32 89
e 32 90
e 32 95
e 32 96
e 32 98
e 32 100
e 33 34
e 33 35
e 33 39
e 33 40
e 33 41
e 33 42
e 33 45
e 33 47
e 33 50
e 33 51
e 33 53
e 33 55
e 33 56
e 33 58
e 33 61
e 33 63
e 33 64
e 33 65
e 33 67
e 33 69
e 33 70
e 33 71
e 33 75
e 33 76
e 33 79
e 33 80
e 33 82
e 33 86
e 33 88
e 33 91
e 33 93
e 33 95
e 33 97
e 34 36
e 34 37
e 34 38
e 34 41
e 34 42
e 34 43
e 34 46
e 34 48
e 34 50
e 34 52
e 34 53
e 34 54
e 34 57
e 34 60
e 34 62
e 34 64
e 34 67
e 34 69
e 34 70
e 34 71
e 34 75
e 34 76
e 34 77
e 34 78
e 34 79
e 34 80
e 34 81
e 34 82
e 34 83
e 34 84
e 34 86
e 34 89
e 34 91
e 34 92
e 34 93
e 34 96
e 34 100
e 35 36
e 35 39
e 35 46
e 35 47
e 35 48
e 35 50
e 35 53
e 35 55
e 35 56
e 35 57
e 35 58
e 35 59
e 35 61
e 35 62
e 35 65
e 35 66
e 35 70
e 35 72
e 35 73
e 35 74
e 35 77
e 35 79
e 35 80
e 35 81
e 35 84
e 35 85
e 35 87
e 35 92
e 35 94
e 35 97
e 36 38
e 36 39
e 36 40
e 36 41
e 36 43
e 36 45
e 36 48
e 36 50
e 36 51
e 36 56
e 36 57
e 36 58
e 36 66
e 36 70
e 36 74
e 36 79
e 36 80
e 36 84
e 36 93
e 36 95
e 36 97
e 36 98
e 36 99
e 37 39
e 37 46
e 37 51
e 37 52
e 37 53
e 37 55
e 37 58
e 37 60
e 37 63
e 37 64
e 37 67
e 37 68
e 37 73
e 37 77
e 37 78
e 37 80
e 37 84
e 37 93
e 37 94
e 37 98
e 38 44
e 38 46
e 38 48
e 38 49
e 38 50
e 38 55
e 38 57
e 38 59
e 38 72
e 38 75
e 38 78
e 38 81
e 38 82
e 38 83
e 38 88
e 38 89
e 38 90
e 38 91
e 38 98
e 38 99
e 39 40
e 39 47
e 39 48
e 39 49
e 39 52
e 39 57
e 39 58
e 39 63
e 39 66
e 39 67
e 39 68
e 39 69
e 39 70
e 39 71
e 39 73
e 39 75
e 39 76
e 39 77
e 39 89
e 39 90
e 39 100
e 40 41
e 40 43
e 40 45
e 40 49
e 40 50
e 40 51
e 40 52
e 40 54
e 40 55
e 40 57
e 40 59
e 40 68
e 40 71
e 40 72
e 40 75
e 40 80
e 40 84
e 40 86
e 40 89
e 40 90
e 40 92
e 40 94
e 40 99
e 40 100
e 41 45
e 41 46
e 41 47
e 41 48
e 41 52
e 41 55
e 41 58
e 41 60
e 41 61
e 41 63
e 41 64
e 41 68
e 41 72
e 41 73
e 41 75
e 41 77
e 41 79
e 41 81
e 41 82
e 41 83
e 41 91
e 41 93
e 41 96
e 41 98
e 41 99
e 42 47
e 42 52
e 42 55
e 42 57
e 42 58
e 42 59
e 42 61
e 42 62
e 42 63
e 42 64
e 42 71
e 42 82
e 42 89
e 42 92
e 42 94
e 43 45
e 43 46
e 43 51
e 43 54
e 43 55
e 43 57
e 43 59
e 43 67
e 43 72
e 43 81
e 43 86
e 43 91
e 43 92
e 43 93
e 43 98
e 43 100
e 44 48
e 44 50
e 44 54
e 44 60
e 44 63
e 44 66
e 44 67
e 44 69
e 44 70
e 44 72
e 44 75
e 44 76
e 44 77
e 44 82
e 44 84
e 44 90
e 44 91
e 44 92
e 44 93
e 44 94
e 44 96
e 44 100
e 45 46
e 45 48
e 45 49
e 45 51
e 45 52
e 45 53
e 45 55
e 45 59
e 45 60
e 45 61
e 45 62
e 45 63
e 45 64
e 45 67
e 45 73
e 45 80
e 45 82
e 45 86
e 45 94
e 45 97
e 46 50
e 46 54
e 46 55
e 46 57
e 46 62
e 46 64
e 46 66
e 46 71
e 46 72
e 46 75
e 46 78
e 46 82
e 46 83
e 46 87
e 46 94
e 46 95
e 46 99
e 47 50
e 47 51
e 47 52
e 47 53
e 47 55
e 47 58
e 47 62
e 47 63
e 47 64
e 47 66
e 47 72
e 47 74
e 47 76
e 47 80
e 47 84
e 47 88
e 47 91
e 47 92
e 47 95
e 47 96
e 47 99
e 47 100
e 48 56
e 48 58
e 48 61
e 48 63
e 48 69
e 48 74
e 48 83
e 48 84
e 48 94
e 48 96
e 48 100
e 49 52
e 49 54
e 49 61
e 49 66
e 49 70
e 49 71
e 49 75
e 49 76
e 49 78
e 49 80
e 49 81
e 49 85
e 49 87
e 49 88
e 49 90
e 49 92
e 49 93
e 50 53
e 50 63
e 50 64
e 50 69
e 50 70
e 50 72
e 50 76
e 50 78
e 50 79
e 50 80
e 50 82
e 50 83
e 50 84
e 50 98
e 50 99
e 50 100
e 51 54
e 51 58
e 51 59
e 51 60
e 51 62
e 51 64
e 51 65
e 51 67
e 51 73
e 51 75
e 51 76
e 51 83
e 51 84
e 51 86
e 51 89
e 51 90
e 51 92
e 51 95
e 51 100
e 52 53
e 52 61
e 52 62
e 52 63
e 52 64
e 52 67
e 52 68
e 52 69
e 52 70
e 52 71
e 52 74
e 52 78
e 52 83
e 52 85
e 52 87
e 52 91
e 52 92
e 52 93
e 52 95
e 52 98
e 53 57
e 53 58
e 53 59
e 53 61
e 53 65
e 53 67
e 53 70
e 53 71
e 53 72
e 53 74
e 53 76
e 53 84
e 53 86
e 53 91
e 53 95
e 53 96
e 53 97
e 53 98
e 54 59
e 54 63
e 54 65
e 54 67
e 54 69
e 54 78
e 54 80
e 54 82
e 54 86
e 54 87
e 54 89
e 54 91
e 54 93
e 54 95
e 55 57
e 55 58
e 55 59
e 55 62
e 55 64
e 55 74
e 55 75
e 55 77
e 55 80
e 55 83
e 55 84
e 55 85
e 55 92
e 55 99
e 56 58
e 56 62
e 56 64
e 56 68
e 56 74
e 56 78
e 56 83
e 56 84
e 56 85
e 56 87
e 56 88
e 56 89
e 56 91
e 56 93
e 56 94
e 56 100
e 57 60
e 57 62
e 57 64
e 57 70
e 57 72
e 57 83
e 57 88
e 57 91
e 57 94
e 57 97
e 57 99
e 58 59
e 58 60
e 58 61
e 58 66
e 58 67
e 58 78
e 58 79
e 58 80
e 58 82
e 58 83
e 58 86
e 58 90
e 58 92
e 58 93
e 58 95
e 58 96
e 58 98
e 58 100
e 59 60
e 59 61
e 59 62
e 59 70
e 59 74
e 59 76
e 59 77
e 59 82
e 59 84
e 59 88
e 59 97
e 59 100
e 60 63
e 60 67
e 60 70
e 60 72
e 60 75
e 60 76
e 60 77
e 60 78
e 60 80
e 60 82
e 60 85
e 60 88
e 60 96
e 60 98
e 60 100
e 61 63
e 61 64
e 61 70
e 61 73
e 61 74
e 61 75
e 61 77
e 61 81
e 61 83
e 61 84
e 61 87
e 61 90
e 61 92
e 61 97
e 61 98
e 61 100
e 62 65
e 62 66
e 62 67
e 62 69
e 62 70
e 62 75
e 62 78
e 62 79
e 62 82
e 62 83
e 62 84
e 62 85
e 62 87
e 62 98
e 62 100
e 63 66
e 63 68
e 63 71
e 63 73
e 63 79
e 63 89
e 63 92
e 63 96
e 63 97
e 63 98
e 64 69
e 64 72
e 64 79
e 64 80
e 64 82
e 64 83
e 64 86
e 64 87
e 64 89
e 64 94
e 64 95
e 64 96
e 64 100
e 65 70
e 65 73
e 65 77
e 65 78
e 65 80
e 65 82
e 65 84
e 65 85
e 65 87
e 65 88
e 65 89
e 65 91
e 65 92
e 65 93
e 65 94
e 65 97
e 65 99
e 66 67
e 66 70
e 66 71
e 66 72
e 66 81
e 66 82
e 66 83
e 66 89
e 66 91
e 66 93
e 66 94
e 66 98
e 66 100
e 67 74
e 67 75
e 67 76
e 67 79
e 67 87
e 67 88
e 67 91
e 67 95
e 67 100
e 68 72
e 68 73
e 68 74
e 68 81
e 68 82
e 68 85
e 68 88
e 68 89
e 68 91
e 68 92
e 68 96
e 68 98
e 69 71
e 69 73
e 69 76
e 69 78
e 69 82
e 69 88
e 69 91
e 69 92
e 69 95
e 69 99
e 70 74
e 70 75
e 70 76
e 70 78
e 70 79
e 70 82
e 70 83
e 70 88
e 70 89
e 70 94
e 70 96
e 71 73
e 71 78
e 71 79
e 71 80
e 71 81
e 71 82
e 71 86
e 71 88
e 71 90
e 71 100
e 72 73
e 72 76
e 72 81
e 72 84
e 72 85
e 72 88
e 72 90
e 72 93
e 72 94
e 73 77
e 73 81
e 73 83
e 73 86
e 73 88
e 73 89
e 73 92
e 73 93
e 73 98
e 74 77
e 74 78
e 74 85
e 74 88
e 74 91
e 74 96
e 74 97
e 74 98
e 74 99
e 74 100
e 75 76
e 75 77
e 75 78
e 75 79
e 75 81
e 75 82
e 75 84
e 75 89
e 75 91
e 75 94
e 75 98
e 75 99
e 76 88
e 76 90
e 76 92
e 76 94
e 76 96
e 77 78
e 77 80
e 77 81
e 77 82
e 77 84
e 77 85
e 77 86
e 77 87
e 77 88
e 77 89
e 77 92
e 77 94
e 77 99
e 78 79
e 78 82
e 78 83
e 78 86
e 78 88
e 78 92
e 78 95
e 79 81
e 79 82
e 79 85
e 79 87
e 79 89
e 79 91
e 79 94
e 79 96
e 79 98
e 79 100
e 80 83
e 80 84
e 80 86
e 80 88
e 80 91
e 80 96
e 80 97
e 81 82
e 81 83
e 81 84
e 81 85
e 81 87
e 81 90
e 81 95
e 81 96
e 81 98
e 82 83
e 82 85
e 82 86
e 82 88
e 82 91
e 82 93
e 82 94
e 82 97
e 82 98
e 83 89
e 83 93
e 83 94
e 84 90
e 84 91
e 84 92
e 84 93
e 84 97
e 84 98
e 85 87
e 85 88
e 85 89
e 85 91
e 85 93
e 85 95
e 86 88
e 86 91
e 86 92
e 86 93
e 86 94
e 86 99
e 87 88
e 87 92
e 87 93
e 87 100
e 88 89
e 88 91
e 88 96
e 88 98
e 88 100
e 89 90
e 89 92
e 89 93
e 89 95
e 89 98
e 89 99
e 90 93
e 90 100
e 91 93
e 91 97
e 91 99
e 93 95
e 93 97
e 93 98
e 94 95
e 94 96
e 94 97
e 95 97
e 95 100
e 96 97
e 96 100
e 98 100
e 99 100
